# Generated by ConicBenchmarkUtilities.jl
VER
2

OBJSENSE
MIN

VAR
166 1
F 166

INT
30
18
19
20
21
22
23
24
25
26
27
28
29
30
31
32
62
66
70
80
84
88
109
110
111
113
117
121
148
149
150

CON
463 445
L= 1
L= 1
L= 1
L= 1
L= 1
L= 1
L= 1
L= 1
L= 1
L= 1
L= 1
L= 1
L= 1
EXP 3
L+ 1
L+ 1
EXP 3
L+ 1
L+ 1
EXP 3
L+ 1
L+ 1
L= 1
L= 1
L= 1
L= 1
L= 1
L= 1
L= 1
L= 1
L= 1
L= 1
L= 1
L= 1
L+ 1
L+ 1
L+ 1
L+ 1
L+ 1
L+ 1
L+ 1
L+ 1
L+ 1
L+ 1
L+ 1
L+ 1
EXP 3
L+ 1
L+ 1
EXP 3
L+ 1
L+ 1
EXP 3
L+ 1
L+ 1
L= 1
L= 1
L= 1
L= 1
L= 1
L= 1
L= 1
L= 1
L= 1
L= 1
L= 1
L= 1
L+ 1
L+ 1
L+ 1
L+ 1
L+ 1
L+ 1
L+ 1
L+ 1
L+ 1
L+ 1
L+ 1
L+ 1
L= 1
L= 1
L= 1
L= 1
L= 1
L= 1
L= 1
L= 1
L= 1
L= 1
L= 1
L= 1
L= 1
L= 1
L= 1
L+ 1
L+ 1
L+ 1
L+ 1
L+ 1
L+ 1
L+ 1
L+ 1
L+ 1
L+ 1
L+ 1
L+ 1
EXP 3
L+ 1
L+ 1
EXP 3
L+ 1
L+ 1
EXP 3
L+ 1
L+ 1
L= 1
L= 1
L= 1
L= 1
L= 1
L= 1
L= 1
L= 1
L= 1
L= 1
L= 1
L= 1
L+ 1
L+ 1
L+ 1
L+ 1
L+ 1
L+ 1
L+ 1
L+ 1
L+ 1
L+ 1
L+ 1
L+ 1
L= 1
L= 1
L= 1
L= 1
L= 1
L= 1
L= 1
L= 1
L= 1
L= 1
L= 1
L= 1
L= 1
L= 1
L= 1
L= 1
L= 1
L= 1
L= 1
L= 1
L= 1
L= 1
L= 1
L= 1
L+ 1
L+ 1
L+ 1
L+ 1
L+ 1
L+ 1
L+ 1
L+ 1
L+ 1
L+ 1
L+ 1
L+ 1
L+ 1
L+ 1
L+ 1
L+ 1
L+ 1
L+ 1
L= 1
L= 1
L= 1
L= 1
L= 1
L= 1
L= 1
L= 1
L= 1
L= 1
L= 1
L= 1
L= 1
L= 1
L= 1
L+ 1
L+ 1
L+ 1
L+ 1
L+ 1
L+ 1
L+ 1
L+ 1
L+ 1
L+ 1
L+ 1
L+ 1
L+ 1
L+ 1
L+ 1
L+ 1
L+ 1
L+ 1
L+ 1
L+ 1
L+ 1
L+ 1
L+ 1
L+ 1
L+ 1
L+ 1
L+ 1
L+ 1
L+ 1
L+ 1
L+ 1
L+ 1
L+ 1
L+ 1
L+ 1
L+ 1
L+ 1
L+ 1
L+ 1
L+ 1
L+ 1
L+ 1
L+ 1
L+ 1
L+ 1
L+ 1
L+ 1
L+ 1
L+ 1
L+ 1
L+ 1
L+ 1
L+ 1
L+ 1
L+ 1
L+ 1
L+ 1
L+ 1
L+ 1
L+ 1
L= 1
L= 1
L= 1
L+ 1
L+ 1
L+ 1
L+ 1
L+ 1
L+ 1
L+ 1
L+ 1
L+ 1
L+ 1
L+ 1
L+ 1
L+ 1
L+ 1
L+ 1
L+ 1
L+ 1
L+ 1
L+ 1
L+ 1
L+ 1
L+ 1
L+ 1
L+ 1
L+ 1
L+ 1
L+ 1
L+ 1
L+ 1
L+ 1
L+ 1
L+ 1
L+ 1
L+ 1
L+ 1
L+ 1
L+ 1
L+ 1
L+ 1
L+ 1
L+ 1
L+ 1
L+ 1
L+ 1
L+ 1
L+ 1
L+ 1
L+ 1
L+ 1
L+ 1
L+ 1
L+ 1
L+ 1
L+ 1
L+ 1
L+ 1
L+ 1
L+ 1
L+ 1
L+ 1
L+ 1
L+ 1
L+ 1
L+ 1
L+ 1
L+ 1
L+ 1
L+ 1
L+ 1
L+ 1
L+ 1
L+ 1
L+ 1
L+ 1
L+ 1
L+ 1
L+ 1
L+ 1
L+ 1
L+ 1
L+ 1
L+ 1
L+ 1
L+ 1
L+ 1
L+ 1
L+ 1
L+ 1
L+ 1
L+ 1
L+ 1
L+ 1
L+ 1
L+ 1
L+ 1
L+ 1
L+ 1
L+ 1
L+ 1
L+ 1
L+ 1
L+ 1
L+ 1
L+ 1
L+ 1
L+ 1
L+ 1
L+ 1
L+ 1
L+ 1
L+ 1
L+ 1
L+ 1
L+ 1
L+ 1
L+ 1
L+ 1
L+ 1
L+ 1
L+ 1
L+ 1
L+ 1
L+ 1
L+ 1
L+ 1
L+ 1
L+ 1
L+ 1
L+ 1
L+ 1
L+ 1
L+ 1
L+ 1
L+ 1
L+ 1
L+ 1
L+ 1
L+ 1
L+ 1
L+ 1
L+ 1
L+ 1
L+ 1
L+ 1
L+ 1
L+ 1
L+ 1
L+ 1
L+ 1
L+ 1
L+ 1
L+ 1
L+ 1
L+ 1
L+ 1
L+ 1
L+ 1
L+ 1
L+ 1
L+ 1
L+ 1
L+ 1
L+ 1
L+ 1
L+ 1
L+ 1
L+ 1
L+ 1
L+ 1
L+ 1
L+ 1
L+ 1
L+ 1
L+ 1
L+ 1
L+ 1
L+ 1
L+ 1
L+ 1
L+ 1
L+ 1
L+ 1
L+ 1
L+ 1
L+ 1
L+ 1

OBJACOORD
1
33 -1.0

ACOORD
802
0 0 -1.0
1 0 1.0
286 0 1.0
287 0 -1.0
0 1 -1.0
2 1 1.0
288 1 1.0
289 1 -1.0
0 2 -1.0
3 2 1.0
290 2 1.0
291 2 -1.0
0 3 5.0
7 3 -1.0
307 3 1.0
0 4 10.0
8 4 -1.0
308 4 1.0
0 5 5.0
9 5 -1.0
309 5 1.0
0 6 -2.0
175 6 1.0
322 6 1.0
323 6 -1.0
0 7 -1.0
176 7 1.0
324 7 1.0
325 7 -1.0
0 8 -2.0
177 8 1.0
326 8 1.0
327 8 -1.0
0 9 80.0
103 9 1.0
328 9 1.0
0 10 90.0
104 10 1.0
329 10 1.0
0 11 120.0
105 11 1.0
330 11 1.0
0 12 285.0
142 12 1.0
331 12 1.0
0 13 390.0
143 13 1.0
332 13 1.0
0 14 350.0
144 14 1.0
333 14 1.0
0 15 290.0
178 15 1.0
334 15 1.0
0 16 405.0
179 16 1.0
335 16 1.0
0 17 190.0
180 17 1.0
336 17 1.0
0 18 -5.0
199 18 5.0
229 18 -1.0
230 18 -1.0
231 18 -1.0
233 18 -1.0
259 18 1.0
433 18 1.0
434 18 -1.0
0 19 -4.0
200 19 4.0
229 19 -1.0
231 19 -1.0
232 19 -1.0
234 19 -1.0
260 19 1.0
435 19 1.0
436 19 -1.0
0 20 -6.0
201 20 6.0
230 20 -1.0
232 20 -1.0
233 20 -1.0
234 20 -1.0
261 20 1.0
437 20 1.0
438 20 -1.0
0 21 -8.0
202 21 8.0
235 21 -1.0
236 21 -1.0
237 21 -1.0
239 21 -1.0
262 21 1.0
439 21 1.0
440 21 -1.0
0 22 -7.0
203 22 7.0
235 22 -1.0
237 22 -1.0
238 22 -1.0
240 22 -1.0
263 22 1.0
441 22 1.0
442 22 -1.0
0 23 -6.0
204 23 6.0
236 23 -1.0
238 23 -1.0
239 23 -1.0
240 23 -1.0
264 23 1.0
443 23 1.0
444 23 -1.0
0 24 -6.0
205 24 6.0
241 24 -1.0
242 24 -1.0
243 24 -1.0
245 24 -1.0
265 24 1.0
445 24 1.0
446 24 -1.0
0 25 -9.0
206 25 9.0
241 25 -1.0
243 25 -1.0
244 25 -1.0
246 25 -1.0
266 25 1.0
447 25 1.0
448 25 -1.0
0 26 -4.0
207 26 4.0
242 26 -1.0
244 26 -1.0
245 26 -1.0
246 26 -1.0
267 26 1.0
449 26 1.0
450 26 -1.0
0 27 -10.0
208 27 10.0
247 27 -1.0
248 27 -1.0
249 27 -1.0
251 27 -1.0
268 27 1.0
451 27 1.0
452 27 -1.0
0 28 -9.0
209 28 9.0
247 28 -1.0
249 28 -1.0
250 28 -1.0
252 28 -1.0
269 28 1.0
453 28 1.0
454 28 -1.0
0 29 -5.0
210 29 5.0
248 29 -1.0
250 29 -1.0
251 29 -1.0
252 29 -1.0
270 29 1.0
455 29 1.0
456 29 -1.0
0 30 -6.0
211 30 6.0
253 30 -1.0
254 30 -1.0
255 30 -1.0
257 30 -1.0
271 30 1.0
457 30 1.0
458 30 -1.0
0 31 -10.0
212 31 10.0
253 31 -1.0
255 31 -1.0
256 31 -1.0
258 31 -1.0
272 31 1.0
459 31 1.0
460 31 -1.0
0 32 -6.0
213 32 6.0
254 32 -1.0
256 32 -1.0
257 32 -1.0
258 32 -1.0
273 32 1.0
461 32 1.0
462 32 -1.0
0 33 -1.0
1 34 -1.0
34 34 1.0
292 34 1.0
1 35 -1.0
73 35 1.0
295 35 1.0
2 36 -1.0
35 36 1.0
293 36 1.0
2 37 -1.0
74 37 1.0
296 37 1.0
3 38 -1.0
36 38 1.0
294 38 1.0
3 39 -1.0
75 39 1.0
297 39 1.0
4 40 -1.0
37 40 1.0
298 40 1.0
4 41 -1.0
76 41 1.0
301 41 1.0
4 42 1.0
7 42 1.0
304 42 1.0
5 43 -1.0
38 43 1.0
299 43 1.0
5 44 -1.0
77 44 1.0
302 44 1.0
5 45 1.0
8 45 1.0
305 45 1.0
6 46 -1.0
39 46 1.0
300 46 1.0
6 47 -1.0
78 47 1.0
303 47 1.0
6 48 1.0
9 48 1.0
306 48 1.0
7 49 -1.0
10 49 1.0
310 49 1.0
8 50 -1.0
11 50 1.0
311 50 1.0
9 51 -1.0
12 51 1.0
312 51 1.0
10 52 -1.0
100 52 1.0
313 52 1.0
10 53 -1.0
139 53 1.0
316 53 1.0
10 54 -1.0
172 54 1.0
319 54 1.0
11 55 -1.0
101 55 1.0
314 55 1.0
11 56 -1.0
140 56 1.0
317 56 1.0
11 57 -1.0
173 57 1.0
320 57 1.0
12 58 -1.0
102 58 1.0
315 58 1.0
12 59 -1.0
141 59 1.0
318 59 1.0
12 60 -1.0
174 60 1.0
321 60 1.0
15 61 -1.0
17 61 -1.0
13 62 1.0
14 62 1.0
16 62 1.0
40 62 40.0
43 62 -40.0
46 62 3.71357206670431
49 62 -3.71357206670431
214 62 -1.0
215 62 -1.0
259 62 -1.0
260 62 1.0
261 62 1.0
274 62 1.0
277 62 1.0
280 62 1.0
283 62 1.0
403 62 1.0
404 62 -1.0
13 63 1.0
16 63 1.0
34 63 -1.0
40 63 -1.0
337 63 1.0
17 64 -1.0
37 64 -1.0
46 64 -1.0
349 64 1.0
20 65 -1.0
22 65 -1.0
18 66 1.0
19 66 1.0
21 66 1.0
41 66 40.0
44 66 -40.0
47 66 3.71357206670431
50 66 -3.71357206670431
214 66 1.0
216 66 -1.0
260 66 -1.0
261 66 1.0
275 66 1.0
278 66 1.0
281 66 1.0
284 66 1.0
405 66 1.0
406 66 -1.0
18 67 1.0
21 67 1.0
35 67 -1.0
41 67 -1.0
338 67 1.0
22 68 -1.0
38 68 -1.0
47 68 -1.0
350 68 1.0
25 69 -1.0
27 69 -1.0
23 70 1.0
24 70 1.0
26 70 1.0
42 70 40.0
45 70 -40.0
48 70 3.71357206670431
51 70 -3.71357206670431
215 70 1.0
216 70 1.0
261 70 -1.0
276 70 1.0
279 70 1.0
282 70 1.0
285 70 1.0
407 70 1.0
408 70 -1.0
23 71 1.0
26 71 1.0
36 71 -1.0
42 71 -1.0
339 71 1.0
27 72 -1.0
39 72 -1.0
48 72 -1.0
351 72 1.0
28 73 1.0
34 73 -1.0
43 73 -1.0
340 73 1.0
29 74 1.0
35 74 -1.0
44 74 -1.0
341 74 1.0
30 75 1.0
36 75 -1.0
45 75 -1.0
342 75 1.0
31 76 1.0
37 76 -1.0
49 76 -1.0
352 76 1.0
32 77 1.0
38 77 -1.0
50 77 -1.0
353 77 1.0
33 78 1.0
39 78 -1.0
51 78 -1.0
354 78 1.0
54 79 -1.0
56 79 -1.2
52 80 1.0
53 80 1.0
55 80 1.0
79 80 40.0
82 80 -40.0
85 80 4.45628648004517
88 80 -4.45628648004517
217 80 -1.0
218 80 -1.0
262 80 -1.0
263 80 1.0
264 80 1.0
274 80 1.0
277 80 1.0
280 80 1.0
283 80 1.0
409 80 1.0
410 80 -1.0
52 81 1.0
55 81 1.0
73 81 -1.0
79 81 -1.0
343 81 1.0
56 82 -1.0
76 82 -1.0
85 82 -1.0
355 82 1.0
59 83 -1.0
61 83 -1.2
57 84 1.0
58 84 1.0
60 84 1.0
80 84 40.0
83 84 -40.0
86 84 4.45628648004517
89 84 -4.45628648004517
217 84 1.0
219 84 -1.0
263 84 -1.0
264 84 1.0
275 84 1.0
278 84 1.0
281 84 1.0
284 84 1.0
411 84 1.0
412 84 -1.0
57 85 1.0
60 85 1.0
74 85 -1.0
80 85 -1.0
344 85 1.0
61 86 -1.0
77 86 -1.0
86 86 -1.0
356 86 1.0
64 87 -1.0
66 87 -1.2
62 88 1.0
63 88 1.0
65 88 1.0
81 88 40.0
84 88 -40.0
87 88 4.45628648004517
90 88 -4.45628648004517
218 88 1.0
219 88 1.0
264 88 -1.0
276 88 1.0
279 88 1.0
282 88 1.0
285 88 1.0
413 88 1.0
414 88 -1.0
62 89 1.0
65 89 1.0
75 89 -1.0
81 89 -1.0
345 89 1.0
66 90 -1.0
78 90 -1.0
87 90 -1.0
357 90 1.0
67 91 1.0
73 91 -1.0
82 91 -1.0
346 91 1.0
68 92 1.0
74 92 -1.0
83 92 -1.0
347 92 1.0
69 93 1.0
75 93 -1.0
84 93 -1.0
348 93 1.0
70 94 1.0
76 94 -1.0
88 94 -1.0
358 94 1.0
71 95 1.0
77 95 -1.0
89 95 -1.0
359 95 1.0
72 96 1.0
78 96 -1.0
90 96 -1.0
360 96 1.0
91 97 -0.75
100 97 -1.0
106 97 -1.0
361 97 1.0
91 98 1.0
103 98 -1.0
112 98 -1.0
385 98 1.0
92 99 -0.75
101 99 -1.0
107 99 -1.0
362 99 1.0
92 100 1.0
104 100 -1.0
113 100 -1.0
386 100 1.0
93 101 -0.75
102 101 -1.0
108 101 -1.0
363 101 1.0
93 102 1.0
105 102 -1.0
114 102 -1.0
387 102 1.0
94 103 1.0
100 103 -1.0
109 103 -1.0
364 103 1.0
95 104 1.0
101 104 -1.0
110 104 -1.0
365 104 1.0
96 105 1.0
102 105 -1.0
111 105 -1.0
366 105 1.0
97 106 1.0
103 106 -1.0
115 106 -1.0
388 106 1.0
98 107 1.0
104 107 -1.0
116 107 -1.0
389 107 1.0
99 108 1.0
105 108 -1.0
117 108 -1.0
390 108 1.0
106 109 4.45628648004517
109 109 -4.45628648004517
112 109 3.34221486003388
115 109 -3.34221486003388
220 109 -1.0
221 109 -1.0
265 109 -1.0
266 109 1.0
267 109 1.0
277 109 -1.0
415 109 1.0
416 109 -1.0
107 110 4.45628648004517
110 110 -4.45628648004517
113 110 3.34221486003388
116 110 -3.34221486003388
220 110 1.0
222 110 -1.0
266 110 -1.0
267 110 1.0
278 110 -1.0
417 110 1.0
418 110 -1.0
108 111 4.45628648004517
111 111 -4.45628648004517
114 111 3.34221486003388
117 111 -3.34221486003388
221 111 1.0
222 111 1.0
267 111 -1.0
279 111 -1.0
419 111 1.0
420 111 -1.0
120 112 -1.0
122 112 -1.5
118 113 1.0
119 113 1.0
121 113 1.0
145 113 4.45628648004517
148 113 -4.45628648004517
151 113 2.54515263975353
154 113 -2.54515263975353
223 113 -1.0
224 113 -1.0
268 113 -1.0
269 113 1.0
270 113 1.0
280 113 -1.0
421 113 1.0
422 113 -1.0
118 114 1.0
121 114 1.0
139 114 -1.0
145 114 -1.0
367 114 1.0
122 115 -1.0
142 115 -1.0
151 115 -1.0
391 115 1.0
125 116 -1.0
127 116 -1.5
123 117 1.0
124 117 1.0
126 117 1.0
146 117 4.45628648004517
149 117 -4.45628648004517
152 117 2.54515263975353
155 117 -2.54515263975353
223 117 1.0
225 117 -1.0
269 117 -1.0
270 117 1.0
281 117 -1.0
423 117 1.0
424 117 -1.0
123 118 1.0
126 118 1.0
140 118 -1.0
146 118 -1.0
368 118 1.0
127 119 -1.0
143 119 -1.0
152 119 -1.0
392 119 1.0
130 120 -1.0
132 120 -1.5
128 121 1.0
129 121 1.0
131 121 1.0
147 121 4.45628648004517
150 121 -4.45628648004517
153 121 2.54515263975353
156 121 -2.54515263975353
224 121 1.0
225 121 1.0
270 121 -1.0
282 121 -1.0
425 121 1.0
426 121 -1.0
128 122 1.0
131 122 1.0
141 122 -1.0
147 122 -1.0
369 122 1.0
132 123 -1.0
144 123 -1.0
153 123 -1.0
393 123 1.0
133 124 1.0
139 124 -1.0
148 124 -1.0
370 124 1.0
134 125 1.0
140 125 -1.0
149 125 -1.0
371 125 1.0
135 126 1.0
141 126 -1.0
150 126 -1.0
372 126 1.0
136 127 1.0
142 127 -1.0
154 127 -1.0
394 127 1.0
137 128 1.0
143 128 -1.0
155 128 -1.0
395 128 1.0
138 129 1.0
144 129 -1.0
156 129 -1.0
396 129 1.0
157 130 -1.0
172 130 -1.0
181 130 -1.0
373 130 1.0
157 131 1.0
160 131 1.0
178 131 -1.0
193 131 -1.0
397 131 1.0
158 132 -1.0
173 132 -1.0
182 132 -1.0
374 132 1.0
158 133 1.0
161 133 1.0
179 133 -1.0
194 133 -1.0
398 133 1.0
159 134 -1.0
174 134 -1.0
183 134 -1.0
375 134 1.0
159 135 1.0
162 135 1.0
180 135 -1.0
195 135 -1.0
399 135 1.0
160 136 -0.5
175 136 -1.0
187 136 -1.0
379 136 1.0
161 137 -0.5
176 137 -1.0
188 137 -1.0
380 137 1.0
162 138 -0.5
177 138 -1.0
189 138 -1.0
381 138 1.0
163 139 1.0
172 139 -1.0
184 139 -1.0
376 139 1.0
164 140 1.0
173 140 -1.0
185 140 -1.0
377 140 1.0
165 141 1.0
174 141 -1.0
186 141 -1.0
378 141 1.0
166 142 1.0
175 142 -1.0
190 142 -1.0
382 142 1.0
167 143 1.0
176 143 -1.0
191 143 -1.0
383 143 1.0
168 144 1.0
177 144 -1.0
192 144 -1.0
384 144 1.0
169 145 1.0
178 145 -1.0
196 145 -1.0
400 145 1.0
170 146 1.0
179 146 -1.0
197 146 -1.0
401 146 1.0
171 147 1.0
180 147 -1.0
198 147 -1.0
402 147 1.0
181 148 4.45628648004517
184 148 -4.45628648004517
187 148 30.0
190 148 -30.0
193 148 15.0
196 148 -15.0
226 148 -1.0
227 148 -1.0
271 148 -1.0
272 148 1.0
273 148 1.0
283 148 -1.0
427 148 1.0
428 148 -1.0
182 149 4.45628648004517
185 149 -4.45628648004517
188 149 30.0
191 149 -30.0
194 149 15.0
197 149 -15.0
226 149 1.0
228 149 -1.0
272 149 -1.0
273 149 1.0
284 149 -1.0
429 149 1.0
430 149 -1.0
183 150 4.45628648004517
186 150 -4.45628648004517
189 150 30.0
192 150 -30.0
195 150 15.0
198 150 -15.0
227 150 1.0
228 150 1.0
273 150 -1.0
285 150 -1.0
431 150 1.0
432 150 -1.0
199 151 1.0
200 152 1.0
201 153 1.0
202 154 1.0
203 155 1.0
204 156 1.0
205 157 1.0
206 158 1.0
207 159 1.0
208 160 1.0
209 161 1.0
210 162 1.0
211 163 1.0
212 164 1.0
213 165 1.0

BCOORD
102
43 40.0
44 40.0
45 40.0
49 3.71357206670431
50 3.71357206670431
51 3.71357206670431
82 40.0
83 40.0
84 40.0
88 4.45628648004517
89 4.45628648004517
90 4.45628648004517
109 4.45628648004517
110 4.45628648004517
111 4.45628648004517
115 3.34221486003388
116 3.34221486003388
117 3.34221486003388
148 4.45628648004517
149 4.45628648004517
150 4.45628648004517
154 2.54515263975353
155 2.54515263975353
156 2.54515263975353
184 4.45628648004517
185 4.45628648004517
186 4.45628648004517
190 30.0
191 30.0
192 30.0
196 15.0
197 15.0
198 15.0
229 1.0
230 1.0
231 1.0
232 1.0
233 1.0
234 1.0
235 1.0
236 1.0
237 1.0
238 1.0
239 1.0
240 1.0
241 1.0
242 1.0
243 1.0
244 1.0
245 1.0
246 1.0
247 1.0
248 1.0
249 1.0
250 1.0
251 1.0
252 1.0
253 1.0
254 1.0
255 1.0
256 1.0
257 1.0
258 1.0
274 -1.0
275 -1.0
276 -1.0
287 40.0
289 40.0
291 40.0
323 30.0
325 30.0
327 30.0
404 1.0
406 1.0
408 1.0
410 1.0
412 1.0
414 1.0
416 1.0
418 1.0
420 1.0
422 1.0
424 1.0
426 1.0
428 1.0
430 1.0
432 1.0
434 1.0
436 1.0
438 1.0
440 1.0
442 1.0
444 1.0
446 1.0
448 1.0
450 1.0
452 1.0
454 1.0
456 1.0
458 1.0
460 1.0
462 1.0
